(declare-const term_to_project_onto4_integralized Int)
(declare-const term_to_project_onto13_integralized Int)
(declare-const term_to_project_onto_integralized Int)
(declare-const term_to_project_onto6_integralized Int)
(declare-const b.Top Int)
(declare-const w_integralized Int)
(declare-const term_to_project_onto1_integralized Int)
(declare-const term_to_project_onto8_integralized Int)
(declare-const term_to_project_onto5_integralized Int)
(declare-const term_to_project_onto10_integralized Int)
(declare-const term_to_project_onto9_integralized Int)
(declare-const term_to_project_onto11_integralized Int)
(declare-const term_to_project_onto7_integralized Int)
(declare-const b.Top@width Int)
(declare-const term_to_project_onto12_integralized Int)
(declare-const term_to_project_onto3_integralized Int)
(declare-const term_to_project_onto2_integralized Int)
(declare-const term_to_project_onto0_integralized Int)
(declare-const b.Top@pos Int)
(declare-const j Int)
(assert (exists
         ((|b.Top@width'?1?1| Int) (|b.Top@pos'?2?2| Int) (|i'?3?3| Int)
            (|b.Top'?4?4| Int) (store?5?5 Int) (store?6?6 Int)
            (store?7?7 Int) (|a.Top'?8?8| Int) (|w'?9_integralized?9| Int)
            (|mem_10'?10?10| Int) (|mem_11'?11?11| Int)
            (|a.Top@pos'?12?12| Int) (|mem_10@pos'?13?13| Int)
            (|mem_11@pos'?14?14| Int) (|a.Top@width'?15?15| Int)
            (|mem_10@width'?16?16| Int) (|mem_11@width'?17?17| Int)
            (|j'?18?18| Int) (K?19?19 Int) (|mem_11@width'?20?20| Int)
            (|mem_10@width'?21?21| Int) (|mem_11@pos'?22?22| Int)
            (|mem_10@pos'?23?23| Int) (|mem_11'?24?24| Int)
            (|mem_10'?25?25| Int) (|w'?26_integralized?26| Int)
            (|j'?27?27| Int) (|a.Top@width'?28?28| Int)
            (|a.Top@pos'?29?29| Int) (|a.Top'?30?30| Int) (mem_10?31?31 Int)
            (mem_11?32?32 Int) (mem_10@pos?33?33 Int) (mem_11@pos?34?34 Int)
            (mem_10@width?35?35 Int) (mem_11@width?36?36 Int) (n?37?37 Int)
            (i?38?38 Int) (a.Top@width?39?39 Int) (a.Top@pos?40?40 Int)
            (a.Top?41?41 Int))
         (and (<= (+ (- n?37?37) 1) 0) (= i?38?38 0) (= (+ (- n?37?37) 5) 0)
                (= i?38?38 0) (<= (+ i?38?38 (- n?37?37)) 0)
                (= (+ (- |j'?18?18|) K?19?19) 0)
                (or (and (= K?19?19 0)
                           (= (+ (- |mem_11@width'?17?17|) mem_11@width?36?36) 0)
                           (= (+ (- |mem_10@width'?16?16|) mem_10@width?35?35) 0)
                           (= (+ (- |a.Top@width'?15?15|) a.Top@width?39?39) 0)
                           (= (+ (- |mem_11@pos'?14?14|) mem_11@pos?34?34) 0)
                           (= (+ (- |mem_10@pos'?13?13|) mem_10@pos?33?33) 0)
                           (= (+ (- |a.Top@pos'?12?12|) a.Top@pos?40?40) 0)
                           (= (+ (- |mem_11'?11?11|) mem_11?32?32) 0)
                           (= (+ (- |mem_10'?10?10|) mem_10?31?31) 0)
                           (= (- |w'?9_integralized?9|) 0)
                           (= (- |j'?18?18|) 0)
                           (= (+ (- |a.Top'?8?8|) a.Top?41?41) 0))
                      (and (<= (+ (- K?19?19) 1) 0) (= (+ n?37?37 -5) 0)
                             (= i?38?38 0) (= (+ n?37?37 -5) 0) (= i?38?38 0)
                             (<= (+ |j'?18?18| -6) 0)
                             (<= (+ (- |j'?18?18|) 1) 0))) (<= (- K?19?19) 0)
                (<= (- |j'?18?18|) 0) (<= (+ (- n?37?37) 1) 0) (= i?38?38 0)
                (= (+ (- n?37?37) 5) 0) (= i?38?38 0)
                (<= (+ (- |j'?18?18|) n?37?37 1) 0) (= (+ i?38?38 -2) 0)
                (= (+ |mem_11@width'?20?20| (- |mem_11@width'?17?17|)) 0)
                (= (+ |mem_10@width'?21?21| (- |mem_10@width'?16?16|)) 0)
                (= (+ |a.Top@width'?28?28| (- |a.Top@width'?15?15|)) 0)
                (= (+ (- store?5?5) |b.Top@width'?1?1|) 0)
                (= (+ |mem_11@pos'?22?22| (- |mem_11@pos'?14?14|)) 0)
                (= (+ |mem_10@pos'?23?23| (- |mem_10@pos'?13?13|)) 0)
                (= (+ |a.Top@pos'?29?29| (- |a.Top@pos'?12?12|)) 0)
                (= (+ (- store?6?6) |b.Top@pos'?2?2|) 0)
                (= (+ |mem_11'?24?24| (- |mem_11'?11?11|)) 0)
                (= (+ |mem_10'?25?25| (- |mem_10'?10?10|)) 0)
                (= (+ |w'?26_integralized?26| (- |w'?9_integralized?9|)) 0)
                (= (+ |j'?27?27| (- |j'?18?18|)) 0)
                (= (+ |i'?3?3| (- i?38?38) -1) 0)
                (= (+ |a.Top'?30?30| (- |a.Top'?8?8|)) 0)
                (= (+ (- store?7?7) |b.Top'?4?4|) 0)
                (= (+ term_to_project_onto13_integralized
                        (- (+ |b.Top'?4?4| (- b.Top)))) 0)
                (= (+ term_to_project_onto12_integralized
                        (- (+ |a.Top'?30?30| (- a.Top?41?41)))) 0)
                (= (+ term_to_project_onto11_integralized
                        (- (+ |i'?3?3| (- i?38?38)))) 0)
                (= (+ term_to_project_onto10_integralized
                        (- (+ |j'?27?27| (- j)))) 0)
                (= (+ term_to_project_onto9_integralized
                        (- (+ |w'?26_integralized?26| (- w_integralized)))) 0)
                (= (+ term_to_project_onto8_integralized
                        (- (+ |mem_10'?25?25| (- mem_10?31?31)))) 0)
                (= (+ term_to_project_onto7_integralized
                        (- (+ |mem_11'?24?24| (- mem_11?32?32)))) 0)
                (= (+ term_to_project_onto6_integralized
                        (- (+ |b.Top@pos'?2?2| (- b.Top@pos)))) 0)
                (= (+ term_to_project_onto5_integralized
                        (- (+ |a.Top@pos'?29?29| (- a.Top@pos?40?40)))) 0)
                (= (+ term_to_project_onto4_integralized
                        (- (+ |mem_10@pos'?23?23| (- mem_10@pos?33?33)))) 0)
                (= (+ term_to_project_onto3_integralized
                        (- (+ |mem_11@pos'?22?22| (- mem_11@pos?34?34)))) 0)
                (= (+ term_to_project_onto2_integralized
                        (- (+ |b.Top@width'?1?1| (- b.Top@width)))) 0)
                (= (+ term_to_project_onto1_integralized
                        (- (+ |a.Top@width'?28?28| (- a.Top@width?39?39)))) 0)
                (= (+ term_to_project_onto0_integralized
                        (- (+ |mem_10@width'?21?21| (- mem_10@width?35?35)))) 0)
                (= (+ term_to_project_onto_integralized
                        (- (+ |mem_11@width'?20?20| (- mem_11@width?36?36)))) 0))))
(check-sat)